
        $ From http://www.csplib.org/Problems/prob009/data/helmut.pdf
        $ Problem number 72
        $ Sequence length : 25
        language ESSENCE' 1.0
        letting sizemaster be 289
        letting sizes be sequence(2,3,4,5,7,12,16,17,19,21,23,25,29,31,32,44,57,64,65,68,72,76,84,140,149)
        